c This Formular is generated by mcnf
c
c    horn? no 
c    forced? no 
c    mixed sat? no 
c    clause length = 3 
c
p cnf 20  91 
 19 6 -9 0
19 3 4 0
-11 -2 17 0
1 -7 6 0
10 -12 -8 0
8 1 -4 0
-8 4 19 0
-2 6 19 0
-15 9 -13 0
-10 17 11 0
-12 14 7 0
-10 8 2 0
20 -8 -17 0
-10 8 11 0
14 18 -20 0
-10 -3 15 0
6 1 -20 0
-17 -6 20 0
19 7 -6 0
2 -4 -19 0
15 -6 -10 0
-7 17 -15 0
13 11 3 0
-13 7 6 0
-3 -5 12 0
-9 -1 -16 0
-3 -8 -5 0
11 -4 -14 0
3 19 1 0
-4 9 19 0
6 -5 -1 0
-4 -16 -2 0
1 -4 7 0
-13 -14 1 0
-17 6 -7 0
-19 14 13 0
3 12 -20 0
18 -9 -17 0
5 11 6 0
-13 -1 -10 0
11 -13 12 0
%
0

16 88 15 28 42 70 79 18 90 13 35 14 75 13 27 25 73 100 62 74
